(set-info :smt-lib-version 2.6)
(set-logic QF_BV)
(set-info :source |
 Patrice Godefroid, SAGE (systematic dynamic test generation)
 For more information: http://research.microsoft.com/en-us/um/people/pg/public_psfiles/ndss2008.pdf
|)
(set-info :category "industrial")
(set-info :status unsat)
(declare-fun T4_132 () (_ BitVec 32))
(declare-fun T1_132 () (_ BitVec 8))
(declare-fun T1_133 () (_ BitVec 8))
(declare-fun T1_134 () (_ BitVec 8))
(declare-fun T1_135 () (_ BitVec 8))
(assert (let ((?v_0 (bvsub T4_132 (_ bv1 32)))) (let ((?v_9 (bvsdiv (bvadd ?v_0 (_ bv580000000 32)) T4_132)) (?v_2 (bvsdiv (_ bv0 32) T4_132))) (let ((?v_8 (bvule (_ bv0 32) ?v_2)) (?v_7 (bvule ?v_2 (_ bv0 32))) (?v_6 (bvsdiv (_ bv600000000 32) T4_132)) (?v_5 (bvsdiv (_ bv20000000 32) T4_132)) (?v_4 (bvadd ?v_2 (_ bv4294967295 32))) (?v_3 (bvadd (bvadd ?v_2 ?v_2) (_ bv4294967295 32))) (?v_1 (bvsub (_ bv0 32) ?v_2))) (and true (= T4_132 (bvor (bvshl (bvor (bvshl (bvor (bvshl ((_ zero_extend 24) T1_135) (_ bv8 32)) ((_ zero_extend 24) T1_134)) (_ bv8 32)) ((_ zero_extend 24) T1_133)) (_ bv8 32)) ((_ zero_extend 24) T1_132))) (bvule ?v_9 (bvsdiv (bvadd ?v_0 (_ bv280000000 32)) T4_132)) (= (bvsub ?v_1 ((_ zero_extend 24) (ite (bvult ?v_1 (_ bv0 32)) (_ bv1 8) (_ bv0 8)))) (_ bv0 32)) (bvule (_ bv0 32) (bvadd (bvadd ?v_6 ?v_2) (_ bv4294967295 32))) (bvule (_ bv0 32) ?v_3) (bvule ?v_3 (_ bv0 32)) (bvule (bvadd ?v_5 (_ bv4294967295 32)) (_ bv99999998 32)) (bvule (_ bv0 32) ?v_4) (bvule ?v_4 (_ bv0 32)) (bvule ?v_5 (_ bv200030 32)) (bvule (_ bv199970 32) ?v_5) (bvult ?v_5 (_ bv333303 32)) (bvult (_ bv166863 32) ?v_5) (not (= ?v_6 (_ bv0 32))) (bvult (_ bv0 32) ?v_6) ?v_7 ?v_8 ?v_7 ?v_8 (bvsle ?v_2 (_ bv0 32)) (bvsle (_ bv0 32) ?v_2) (bvult ?v_2 (_ bv2147483647 32)) (bvule (_ bv0 32) ?v_0) (not (= ?v_0 (_ bv0 32))) (bvult (_ bv0 32) T4_132) (bvule (_ bv0 32) T4_132) (not (= T4_132 (_ bv0 32))) (bvult (bvsdiv (bvadd ?v_0 (_ bv260000000 32)) T4_132) ?v_9) (bvult (bvsdiv (bvadd ?v_0 (_ bv240000000 32)) T4_132) ?v_9) (bvult (bvsdiv (bvadd ?v_0 (_ bv220000000 32)) T4_132) ?v_9) (bvult (bvsdiv (bvadd ?v_0 (_ bv200000000 32)) T4_132) ?v_9) (bvult (bvsdiv (bvadd ?v_0 (_ bv180000000 32)) T4_132) ?v_9) (bvult (bvsdiv (bvadd ?v_0 (_ bv160000000 32)) T4_132) ?v_9) (bvult (bvsdiv (bvadd ?v_0 (_ bv140000000 32)) T4_132) ?v_9) (bvult (bvsdiv (bvadd ?v_0 (_ bv120000000 32)) T4_132) ?v_9) (bvult (bvsdiv (bvadd ?v_0 (_ bv100000000 32)) T4_132) ?v_9) (bvult (bvsdiv (bvadd ?v_0 (_ bv80000000 32)) T4_132) ?v_9) (bvult (bvsdiv (bvadd ?v_0 (_ bv60000000 32)) T4_132) ?v_9) (bvult (bvsdiv (bvadd ?v_0 (_ bv40000000 32)) T4_132) ?v_9) (bvult (bvsdiv (bvadd ?v_0 (_ bv20000000 32)) T4_132) ?v_9) (bvule (_ bv0 32) ?v_9) (bvult (_ bv0 32) ?v_9))))))
(check-sat)
(exit)
